/* Objective function */
min: - 0.0054fpdi - 0.0054fpdo + 0.05apdi + 0.05apdo + 0.0002pi + 0.0002po - 0.5fsi - 0.5fso;

apdi = 0.0 hi + 0.0 li + 12.91071 ri + -0.03968 ci + -1.95282 si + 0.0 ti + 0.10925 fTempIi + 0.01462 ami + -157.18915;
asi = 0.0 hi + -0.0 li + -0.00011 ri + -0.00044 ci + -4e-05 si + -0.0 ti + -0.00019 fTempIi + 0.00014 ami + 0.01144;
aTempOi = 0.0 hi + 0.0 li + 0.28151 ri + -0.08795 ci + -0.05666 si + -0.0 ti + 0.78838 fTempIi + -0.00042 ami + 6.82159;
fpdi = 0.0 hi + -0.0 li + 30.10327 ri + -107.48921 ci + -0.06861 si + -0.0 ti + -1.57361 fTempIi + 0.0005 ami + 833.88757;
fsi = 0.0 hi + -0.0 li + -0.00017 ri + -0.20743 ci + 4e-05 si + -0.0 ti + 0.00087 fTempIi + -0.0 ami + 3.10557;
fTempOi = 0.0 hi + 0.0 li + -0.27712 ri + 0.08921 ci + 0.05564 si + 0.0 ti + 0.23527 fTempIi + -0.00038 ami + 9.92383;
pi = 0.0 hi + 0.0 li + 179.10833 ri + 2.53333 ci + -15.02 si + 0.0 ti + 0.0 fTempIi + -0.0 ami + 463.01667;

apdo = 0.0 ho + -0.0 lo + -0.0 ro + 0.01134 co + -1.20442 so + 0.0 to + 0.06032 fTempIo + 0.00919 amo + -18.88104;
aso = 0.0 ho + 0.0 lo + 0.0 ro + -0.0 co + 0.0 so + 0.0 to + -0.0 fTempIo + 0.00014 amo + -0.0;
aTempOo = 0.0 ho + 0.0 lo + 0.0 ro + 0.13087 co + 0.07033 so + 0.0 to + 0.63112 fTempIo + 0.00041 amo + -1.06814;
fpdo = 0.0 ho + -0.0 lo + -0.0 ro + -14.45973 co + 0.0197 so + 0.0 to + -0.38621 fTempIo + -9e-05 amo + 236.13393;
fso = 0.0 ho + -0.0 lo + -0.0 ro + -0.0921 co + -3e-05 so + 0.0 to + 0.00061 fTempIo + 0.0 amo + 2.09021;
fTempOo = 0.0 ho + -0.0 lo + -0.0 ro + -0.12882 co + -0.06861 so + 0.0 to + 0.37812 fTempIo + 0.00031 amo + 14.84055;
po = 0.0 ho + 0.0 lo + 0.0 ro + 2.72381 co + -10.12143 so + 0.0 to + 0.0 fTempIo + 0.0 amo + 1406.85476;

/* Variable bounds */
aTempOi > 18.6;
1 =r6i + r8i + r10i + r12i + r14i;
ri =6r6i + 8r8i + 10r10i + 12r12i + 14r14i;
1 =s25i + s30i + s40i;
si =25s25i + 30s30i + 40s40i;
ti = 2;
apdi > 100;
apdi < 300;
asi > 0;
asi < 3;
aTempOi > 5;
aTempOi < 25;
fpdi > 100;
fpdi < 300;
fsi > 0;
fsi < 1.25;
fTempOi > 5;
fTempOi < 25;
pi > 0;
ri > 6;
ri < 14;
ci > 1;
ci < 9;
si > 25;
si < 60;
ti > 1;
ti < 3;
fTempIi > 5;
fTempIi < 25;

/* aTempOo < 11.4; */
1 =r6o + r8o + r10o + r12o + r14o;
ro =6r6o + 8r8o + 10r10o + 12r12o + 14r14o;
1 =s25o + s30o + s40o;
so =25s25o + 30s30o + 40s40o;
to = 2;
apdo > 100;
apdo < 300;
aso > 0;
aso < 3;
aTempOo > 5;
aTempOo < 25;
fpdo > 100;
fpdo < 300;
fso > 0;
fso < 1.25;
fTempOo > 5;
fTempOo < 25;
po > 0;
ro > 6;
ro < 8;
co > 9;
co < 60;
so > 25;
so < 60;
to > 1;
to < 3;
fTempIo > 5;
fTempIo < 25;
int hi,li,si,ti,ci,ri,ami;
int ho,lo,so,to,co,ro,amo;
bin s25i,s30i,s40i,s50i,s60i,r6i,r8i,r10i,r12i,r14i;
bin s25o,s30o,s40o,s50o,s60o,r6o,r8o,r10o,r12o,r14o;
